
Gurobi 8.1.1 (win64) logging started 11/28/19 13:01:06

Changed value of parameter LogFile to logs/drand/rlt/drand-07-110-1.log
   Prev: gurobi.log  Default: 
Changed value of parameter LogToConsole to 0
   Prev: 1  Min: 0  Max: 1  Default: 1
Changed value of parameter TimeLimit to 3600.0
   Prev: 1e+100  Min: 0.0  Max: 1e+100  Default: 1e+100
Optimize a model with 226405 rows, 75855 columns and 530597 nonzeros
Variable types: 0 continuous, 75855 integer (389 binary)
Coefficient statistics:
  Matrix range     [1e+00, 1e+00]
  Objective range  [1e+00, 1e+00]
  Bounds range     [1e+00, 1e+00]
  RHS range        [1e+00, 1e+00]
Presolve time: 2.88s
Presolved: 226405 rows, 75855 columns, 530597 nonzeros
Variable types: 0 continuous, 75855 integer (75855 binary)
Found heuristic solution: objective 7.0000000

Root simplex log...

Iteration    Objective       Primal Inf.    Dual Inf.      Time
    2637    1.0000068e+00   7.571429e+00   0.000000e+00      5s
    3387    1.2500062e+00   7.625000e+00   0.000000e+00     10s
    4037    1.2577864e+00   5.316490e+00   0.000000e+00     15s
    5817    1.2606520e+00   1.582645e+01   0.000000e+00     20s
    6486    1.2606909e+00   0.000000e+00   0.000000e+00     22s

Root relaxation: objective 1.260691e+00, 6486 iterations, 17.99 seconds

    Nodes    |    Current Node    |     Objective Bounds      |     Work
 Expl Unexpl |  Obj  Depth IntInf | Incumbent    BestBd   Gap | It/Node Time

     0     0    1.26069    0 2552    7.00000    1.26069  82.0%     -   28s
     0     0    1.41537    0 1639    7.00000    1.41537  79.8%     -   66s
     0     0    1.56531    0 1689    7.00000    1.56531  77.6%     -  169s
     0     0    1.56790    0 1690    7.00000    1.56790  77.6%     -  172s
     0     0    1.60708    0 1935    7.00000    1.60708  77.0%     -  182s
     0     0    1.61038    0 1738    7.00000    1.61038  77.0%     -  236s
     0     0    1.62453    0 2193    7.00000    1.62453  76.8%     -  249s
     0     0    1.62463    0 2207    7.00000    1.62463  76.8%     -  269s
     0     0    1.64918    0 2280    7.00000    1.64918  76.4%     -  286s
     0     0    1.64931    0 2302    7.00000    1.64931  76.4%     -  379s
     0     0    1.66306    0 2029    7.00000    1.66306  76.2%     -  395s
     0     0    1.66446    0 1965    7.00000    1.66446  76.2%     -  420s
     0     0    1.67555    0 1868    7.00000    1.67555  76.1%     -  436s
     0     0    1.67585    0 1845    7.00000    1.67585  76.1%     -  463s
     0     0    1.68252    0 1977    7.00000    1.68252  76.0%     -  478s
     0     0    1.68295    0 2013    7.00000    1.68295  76.0%     -  576s
     0     0    1.68884    0 1776    7.00000    1.68884  75.9%     -  593s
     0     0    1.68885    0 1757    7.00000    1.68885  75.9%     -  597s
     0     0    1.69521    0 1758    7.00000    1.69521  75.8%     -  615s
     0     0    1.69525    0 1787    7.00000    1.69525  75.8%     -  744s
     0     0    1.70187    0 2095    7.00000    1.70187  75.7%     -  764s
     0     0    1.70778    0 2141    7.00000    1.70778  75.6%     -  791s
     0     0    1.70779    0 2139    7.00000    1.70779  75.6%     -  797s
     0     0    1.71448    0 2099    7.00000    1.71448  75.5%     -  823s
     0     0    1.71494    0 2086    7.00000    1.71494  75.5%     -  939s
     0     0    1.72004    0 2020    7.00000    1.72004  75.4%     -  964s
     0     0    1.72025    0 2001    7.00000    1.72025  75.4%     -  981s
     0     0    1.72548    0 2045    7.00000    1.72548  75.4%     - 1008s
     0     0    1.72965    0 1955    7.00000    1.72965  75.3%     - 1180s
     0     0    1.72975    0 1973    7.00000    1.72975  75.3%     - 1218s
     0     0    1.73302    0 1915    7.00000    1.73302  75.2%     - 1244s
     0     0    1.73308    0 1960    7.00000    1.73308  75.2%     - 1376s
     0     0    1.73459    0 1958    7.00000    1.73459  75.2%     - 1396s
     0     0    1.73461    0 1953    7.00000    1.73461  75.2%     - 1404s
     0     0    1.73657    0 1946    7.00000    1.73657  75.2%     - 1430s
     0     0    1.73660    0 1871    7.00000    1.73660  75.2%     - 1461s
     0     0    1.73811    0 1892    7.00000    1.73811  75.2%     - 1484s
     0     0    1.73814    0 1912    7.00000    1.73814  75.2%     - 1624s
     0     0    1.73984    0 1999    7.00000    1.73984  75.1%     - 1651s
     0     0    1.73993    0 2020    7.00000    1.73993  75.1%     - 1690s
     0     0    1.74130    0 1907    7.00000    1.74130  75.1%     - 1713s
     0     0    1.74235    0 1940    7.00000    1.74235  75.1%     - 1881s
     0     0    1.74238    0 2006    7.00000    1.74238  75.1%     - 1893s
     0     0    1.74358    0 1843    7.00000    1.74358  75.1%     - 1920s
     0     0    1.74358    0 1839    7.00000    1.74358  75.1%     - 1928s
     0     0    1.74454    0 1932    7.00000    1.74454  75.1%     - 1954s
     0     0    1.74526    0 1966    7.00000    1.74526  75.1%     - 2018s
     0     0    1.74526    0 1966    7.00000    1.74526  75.1%     - 2019s
     0     0    1.74526    0 1966    7.00000    1.74526  75.1%     - 3600s

Cutting planes:
  Gomory: 2
  MIR: 2
  Zero half: 144

Explored 1 nodes (135974 simplex iterations) in 3600.11 seconds
Thread count was 4 (of 4 available processors)

Solution count 1: 7 

Time limit reached
Best objective 7.000000000000e+00, best bound 2.000000000000e+00, gap 71.4286%
